(set-logic ALL)
(declare-fun seed0_T_1 () Bool)
(declare-fun seed0_T_2 () Bool)
(declare-fun seed0_T_3 () Bool)
(declare-fun seed0_T_4 () Bool)
(declare-fun seed0_var_0xINPUT_107913 () String)
(assert (and (or (= seed0_T_1 (= "-" seed0_var_0xINPUT_107913)) (=> (str.suffixof (str.++ seed0_var_0xINPUT_107913 "jbxp") (str.++ seed0_var_0xINPUT_107913 "834YxFt9v")) (str.prefixof (str.++ seed0_var_0xINPUT_107913 "EYR0hSv6uzwWDCbmyn1T") (str.++ seed0_var_0xINPUT_107913 "xuKc91pPb6kSL5UWq")))) (or (= seed0_T_2 (not seed0_T_1)) (not (str.suffixof (str.++ seed0_var_0xINPUT_107913 "KyFkxwpIu3rD7ECegSGv") (str.++ seed0_var_0xINPUT_107913 "tvnb3z")))) (or seed0_T_2 (str.contains (str.++ seed0_var_0xINPUT_107913 "1E3FvhNq") (str.++ seed0_var_0xINPUT_107913 "4G1FwvtLcSoA"))) (or (= seed0_T_3 (= "" seed0_var_0xINPUT_107913)) (not (str.contains (str.++ seed0_var_0xINPUT_107913 "") (str.++ seed0_var_0xINPUT_107913 "qHS3hXCNwxe")))) (or (= seed0_T_4 (not seed0_T_3)) (not (str.contains (str.++ seed0_var_0xINPUT_107913 "0sJ") (str.++ seed0_var_0xINPUT_107913 "EgRxi2A")))) (or seed0_T_4 (not (str.suffixof (str.++ seed0_var_0xINPUT_107913 "6HnCGd1x20A3D") (str.++ seed0_var_0xINPUT_107913 "oqcLDJ"))))))
(check-sat)
(exit)